c   #vars: 36   #clauses: 163   #literals: 490
c 
p cnf 36 163
-1 -2 -5 0
3 17 -22 -32 0
-4 -5 0
-18 20 21 34 0
-1 -2 4 5 0
3 17 -20 -33 0
-7 -8 0
3 20 21 -22 0
-9 -10 0
-11 -12 0
-13 -14 0
-15 -16 0
-17 22 23 33 0
15 16 26 27 0
-18 -19 0
-20 -21 0
-22 -23 0
-24 -25 0
-26 -27 0
3 -17 22 23 0
-28 -29 0
1 2 31 32 0
-31 -32 0
1 2 22 23 0
1 2 -11 30 0
-35 -36 0
-3 17 31 32 0
-1 -15 0
-2 -16 0
4 5 13 14 0
6 22 23 -33 0
-1 -22 0
-2 -23 0
-3 -6 17 33 0
-11 20 21 34 0
15 16 -20 -21 0
-2 -30 0
-1 -31 0
-2 -32 0
-6 15 16 -20 -21 0
-6 22 23 33 0
6 -22 -27 33 0
-3 -21 0
3 17 -22 -33 0
-3 -23 0
-4 -11 0
-5 -12 0
-4 -13 0
-5 -14 0
-4 -18 0
-5 -19 0
-3 17 -22 33 0
-1 -2 0
18 19 -20 34 0
-5 -30 0
7 8 26 27 0
-4 -35 0
-5 -36 0
6 -17 -27 33 0
7 8 35 36 0
6 -17 -23 33 0
-20 34 -35 -36 0
6 -22 -23 33 0
9 10 15 16 0
11 12 -20 34 0
-11 34 -35 -36 0
11 12 -18 34 0
6 22 23 -27 0
3 17 -20 -32 0
18 19 35 36 0
-13 -14 24 25 0
-18 34 -35 -36 0
-6 17 -32 33 0
13 14 -24 -25 0
-6 -22 0
-6 -26 0
-6 15 16 -20 -21 -30 0
1 2 -4 30 0
-6 -15 -16 20 21 -30 0
4 5 35 36 0
6 -23 26 27 0
-7 -11 0
-8 -12 0
18 19 28 29 0
-7 -13 0
-8 -14 0
24 25 26 27 0
-7 -24 0
-8 -25 0
24 25 31 32 0
-7 -26 0
-8 -27 0
-7 -28 0
-8 -29 0
1 2 15 16 0
-7 -35 0
-8 -36 0
3 -17 20 21 0
-1 4 5 30 0
3 -20 22 23 0
4 5 -11 30 0
-11 18 19 34 0
6 26 27 -33 0
7 8 11 12 0
-9 -15 0
-10 -16 0
13 14 35 36 0
-9 -18 0
-10 -19 0
15 16 31 32 0
-9 -20 0
-10 -21 0
7 8 24 25 0
-9 -31 0
-10 -32 0
-6 -15 -16 20 21 0
-12 -30 0
-15 -16 20 21 0
1 2 -4 -5 0
-12 -34 0
-13 -28 0
-14 -29 0
9 10 18 19 0
-13 -35 0
-14 -36 0
9 10 31 32 0
-15 -26 0
-16 -27 0
17 31 32 -33 0
-15 -31 0
-16 -32 0
15 16 35 36 0
-15 -35 0
-16 -36 0
17 -22 -32 33 0
-17 -31 0
7 8 13 14 0
-4 11 12 30 0
4 5 18 19 0
7 8 28 29 0
-18 -28 0
-19 -29 0
13 14 28 29 0
-1 -2 -4 -5 0
-19 -34 0
9 10 20 21 0
-18 -35 0
-19 -36 0
24 25 28 29 0
-20 -26 0
-21 -27 0
-1 -2 -4 0
-21 -34 0
-1 11 12 30 0
-23 -33 0
20 21 26 27 0
-24 -26 0
-25 -27 0
4 5 11 12 0
-24 -28 0
-25 -29 0
-24 -31 0
-25 -32 0
